<number of tasks>
50

<cycle time>
1000

<order strength>
0.199


<task times>
1 432
2 689
3 424
4 563
5 420
6 729
7 360
8 430
9 346
10 523
11 460
12 463
13 685
14 424
15 491
16 576
17 596
18 251
19 352
20 537
21 519
22 615
23 435
24 510
25 368
26 669
27 546
28 479
29 467
30 598
31 655
32 298
33 654
34 409
35 471
36 546
37 411
38 409
39 510
40 412
41 374
42 519
43 674
44 467
45 428
46 360
47 455
48 624
49 473
50 560

<precedence relations>
1,8
2,9
3,10
3,11
3,12
3,13
4,24
4,34
7,12
8,18
9,15
10,16
11,14
11,17
11,18
12,47
13,19
13,20
14,22
15,21
16,24
17,23
18,24
18,26
20,25
20,27
20,28
21,29
22,31
23,32
24,30
24,33
26,39
27,34
28,39
29,38
30,35
31,36
32,37
32,39
35,40
36,42
37,41
39,43
39,44
39,45
40,46
41,47
42,50
43,49
45,48

<end>
